(declare-fun yuscore2dollarskuscore23 () Real)
(assert (forall ((t13uscore0dollarskuscore0 Real)) (not (exists ((ts13uscore0 Real)) (or (< yuscore2dollarskuscore23 1) (and (> ts13uscore0 t13uscore0dollarskuscore0) (not (= 1 (+ 1.0 ts13uscore0)))))))))
(check-sat)
